(set-logic QF_S)
(declare-fun var0 () String)
(assert (RegexIn var0 (RegexConcat (RegexStar (RegexPlus (Str2Reg "000"))) (RegexConcat (RegexUnion (RegexStar (Str2Reg "1")) (RegexStar (Str2Reg "22"))) (RegexConcat (RegexUnion (RegexStar (Str2Reg "3")) (RegexStar (Str2Reg "444"))) (RegexConcat (RegexPlus (RegexUnion (Str2Reg "55") (Str2Reg "6"))) (RegexConcat (RegexStar (RegexPlus (Str2Reg "77"))) (RegexConcat (RegexPlus (RegexStar (Str2Reg "888"))) (RegexConcat (RegexStar (RegexStar (Str2Reg "9"))) (RegexConcat (RegexUnion (RegexPlus (Str2Reg "a")) (RegexPlus (Str2Reg "bbb"))) (RegexConcat (RegexUnion (RegexStar (Str2Reg "c")) (RegexStar (Str2Reg "dd"))) (RegexUnion (RegexUnion (Str2Reg "eee") (Str2Reg "ff")) (RegexUnion (Str2Reg "g") (Str2Reg "h"))))))))))))))
(assert (<= 376 (Length var0)))
(check-sat)